
Gurobi 9.0.2 (win64) logging started Sun Dec 27 05:59:47 2020

Changed value of parameter logfile to result\SunCable-20201227T0415\scenario_2030_p0_cab1000.log
   Prev:   Default: 
Gurobi Optimizer version 9.0.2 build v9.0.2rc0 (win64)
Optimize a model with 1243974 rows, 762167 columns and 3491691 nonzeros
Model fingerprint: 0x3fc5231a
Coefficient statistics:
  Matrix range     [1e-07, 3e+05]
  Objective range  [1e+00, 1e+00]
  Bounds range     [0e+00, 0e+00]
  RHS range        [2e-05, 3e+08]
Warning: Model contains large matrix coefficient range
         Consider reformulating model or setting NumericFocus parameter
         to avoid numerical issues.

Concurrent LP optimizer: primal simplex, dual simplex, and barrier
Showing barrier log only...

Presolve removed 1068997 rows and 595935 columns
Presolve time: 2.66s
Presolved: 174977 rows, 280098 columns, 652320 nonzeros

Ordering time: 0.07s

Barrier statistics:
 Dense cols : 5
 AA' NZ     : 6.422e+05
 Factor NZ  : 3.150e+06 (roughly 200 MBytes of memory)
 Factor Ops : 7.040e+07 (less than 1 second per iteration)
 Threads    : 30

                  Objective                Residual
Iter       Primal          Dual         Primal    Dual     Compl     Time
   0  -2.28031549e+16 -1.07293743e+15  6.65e+06 2.60e+04  2.74e+12     3s
   1  -4.95672718e+15 -1.08564453e+15  1.44e+06 4.52e+06  7.75e+11     3s
   2  -1.50715406e+15 -1.02946715e+15  4.41e+05 1.29e+06  2.38e+11     4s
   3  -3.85787691e+14 -9.27565745e+14  1.13e+05 1.88e+05  5.55e+10     4s
   4  -9.21194682e+13 -5.83191328e+14  2.58e+04 4.50e+04  1.33e+10     4s
   5  -2.95499062e+13 -3.38132752e+14  7.68e+03 1.80e+04  4.45e+09     5s
   6  -9.87739975e+12 -1.92825317e+14  2.69e+03 4.47e+03  1.49e+09     5s
   7  -1.83893223e+12 -9.43323740e+13  5.78e+02 5.03e+02  3.34e+08     5s
   8   2.65796197e+11 -1.71347968e+13  1.13e+01 1.47e+01  3.27e+07     5s
   9   1.49236323e+11 -2.14312438e+12  3.56e-01 1.44e+00  4.11e+06     6s
  10   7.10391758e+10 -1.08771890e+12  1.23e-01 5.46e-01  2.06e+06     6s
  11   2.99749407e+10 -3.48570962e+11  3.43e-02 1.12e-08  6.70e+05     6s
  12   1.16380680e+10 -1.45139035e+11  6.07e-03 1.49e-08  2.76e+05     6s
  13   8.38311841e+09 -2.81500050e+10  2.03e-03 1.49e-08  6.44e+04     7s
  14   7.06258231e+09 -5.52160553e+09  8.94e-04 1.49e-08  2.22e+04     7s
  15   6.33613709e+09  1.45217913e+09  3.71e-04 7.45e-09  8.60e+03     7s
  16   6.03647320e+09  3.06691075e+09  1.96e-04 5.59e-09  5.23e+03     7s
  17   5.89333146e+09  3.87432934e+09  1.18e-04 3.73e-09  3.55e+03     7s
  18   5.84506447e+09  5.06592907e+09  9.49e-05 2.79e-09  1.37e+03     8s
  19   5.81104513e+09  5.16666823e+09  7.78e-05 2.79e-09  1.13e+03     8s
  20   5.77383511e+09  5.34158438e+09  5.91e-05 2.79e-09  7.61e+02     8s
  21   5.73480991e+09  5.46408796e+09  4.08e-05 1.86e-09  4.76e+02     9s
  22   5.71074809e+09  5.52482697e+09  2.86e-05 1.86e-09  3.27e+02     9s
  23   5.69685866e+09  5.57500136e+09  2.12e-05 1.86e-09  2.14e+02     9s
  24   5.68633219e+09  5.61261328e+09  1.53e-05 1.86e-09  1.30e+02     9s
  25   5.67579976e+09  5.62116498e+09  9.52e-06 1.86e-09  9.62e+01    10s
  26   5.67283885e+09  5.63018363e+09  7.88e-06 1.86e-09  7.51e+01    10s
  27   5.67064113e+09  5.63734077e+09  6.68e-06 1.86e-09  5.86e+01    10s
  28   5.66557448e+09  5.64802302e+09  3.93e-06 1.86e-09  3.09e+01    10s
  29   5.66090411e+09  5.65372350e+09  1.44e-06 1.86e-09  1.26e+01    11s
  30   5.65947820e+09  5.65496389e+09  7.05e-07 1.86e-09  7.94e+00    11s
  31   5.65884227e+09  5.65626328e+09  3.84e-07 1.86e-09  4.54e+00    11s
  32   5.65844185e+09  5.65692357e+09  2.33e-07 1.86e-09  2.67e+00    11s
  33   5.65823139e+09  5.65723967e+09  1.43e-07 1.86e-09  1.74e+00    12s
  34   5.65816051e+09  5.65754876e+09  6.22e-07 2.79e-09  1.08e+00    12s
  35   5.65811633e+09  5.65781157e+09  5.16e-07 2.79e-09  5.36e-01    12s
  36   5.65810138e+09  5.65784217e+09  3.01e-07 2.79e-09  4.56e-01    12s
  37   5.65808621e+09  5.65790832e+09  1.67e-07 1.86e-09  3.13e-01    13s
  38   5.65808201e+09  5.65799803e+09  1.31e-07 1.86e-09  1.48e-01    13s
  39   5.65807395e+09  5.65801230e+09  6.27e-08 1.86e-09  1.08e-01    13s
  40   5.65807140e+09  5.65803864e+09  4.15e-08 1.86e-09  5.76e-02    14s
  41   5.65806904e+09  5.65805126e+09  2.29e-08 2.79e-09  3.13e-02    14s
  42   5.65806620e+09  5.65806544e+09  5.20e-10 2.79e-09  1.34e-03    14s
  43   5.65806609e+09  5.65806609e+09  2.03e-10 2.79e-09  1.92e-06    15s
  44   5.65806609e+09  5.65806609e+09  1.51e-04 2.79e-09  1.92e-06    15s

Barrier solved model in 44 iterations and 14.99 seconds
Optimal objective 5.65806609e+09

Crossover log...

   18960 DPushes remaining with DInf 0.0000000e+00                15s
       0 DPushes remaining with DInf 0.0000000e+00                16s
Warning: Markowitz tolerance tightened to 0.5

   63536 PPushes remaining with PInf 1.3874143e-06                16s
       0 PPushes remaining with PInf 0.0000000e+00                20s

  Push phase complete: Pinf 0.0000000e+00, Dinf 1.6767333e+02     20s

Iteration    Objective       Primal Inf.    Dual Inf.      Time
   81945    5.6580661e+09   0.000000e+00   1.676733e+02     20s
   81947    5.6580661e+09   0.000000e+00   0.000000e+00     21s

Solved with barrier
Solved in 81947 iterations and 21.28 seconds
Optimal objective  5.658066095e+09
Warning: unscaled primal violation = 0.000870549 and residual = 0.000870549
